; SMT 2
; Generated for Z3
(set-info :source "Generated by CBMC 5.8")
(set-option :produce-models true)


; location file AVL/harness.c line 23 function main  4094
; find_symbols
(declare-fun |goto_symex::&92;guard#1| () Bool)

; location file AVL/harness.c line 23 function main  713
; convert
(define-fun |B0| () Bool |goto_symex::&92;guard#1|)


; location file AVL/harness.c line 24 function main  713
; convert
(define-fun |B1| () Bool |goto_symex::&92;guard#1|)


; location file AVL/harness.c line 24 function main  713
; convert
(define-fun |B2| () Bool |goto_symex::&92;guard#1|)


; location file AVL/harness.c line 24 function main  713
; convert
(define-fun |B3| () Bool |goto_symex::&92;guard#1|)


; location file AVL/harness.c line 25 function main  713
; convert
(define-fun |B4| () Bool |goto_symex::&92;guard#1|)


; location file AVL/harness.c line 26 function main  4094
; find_symbols
(declare-fun |goto_symex::&92;guard#2| () Bool)

; location file AVL/harness.c line 26 function main  713
; convert
(define-fun |B5| () Bool (and |goto_symex::&92;guard#1| |goto_symex::&92;guard#2|))


; location   713
; convert
(define-fun |B6| () Bool |goto_symex::&92;guard#1|)


; location file AVL/harness.c line 29 function main  713
; convert
(define-fun |B7| () Bool (not |goto_symex::&92;guard#1|))


; location file AVL/harness.c line 30 function main  713
; convert
(define-fun |B8| () Bool (not |goto_symex::&92;guard#1|))


; location file AVL/harness.c line 30 function main  713
; convert
(define-fun |B9| () Bool (not |goto_symex::&92;guard#1|))


; location file AVL/harness.c line 30 function main  713
; convert
(define-fun |B10| () Bool (not |goto_symex::&92;guard#1|))


; location file AVL/harness.c line 31 function main  713
; convert
(define-fun |B11| () Bool (not |goto_symex::&92;guard#1|))


; location file AVL/harness.c line 32 function main  4094
; find_symbols
(declare-fun |goto_symex::&92;guard#3| () Bool)

; location file AVL/harness.c line 32 function main  713
; convert
(define-fun |B12| () Bool (and (not |goto_symex::&92;guard#1|) |goto_symex::&92;guard#3|))


; location file AVL/harness.c line 23 function main  4094
; find_symbols
(declare-fun |goto_symex::&92;guard#4| () Bool)

; location file AVL/harness.c line 23 function main  713
; convert
(define-fun |B13| () Bool |goto_symex::&92;guard#4|)


; location file AVL/harness.c line 24 function main  713
; convert
(define-fun |B14| () Bool |goto_symex::&92;guard#4|)


; location file AVL/harness.c line 24 function main  713
; convert
(define-fun |B15| () Bool |goto_symex::&92;guard#4|)


; location file AVL/harness.c line 24 function main  713
; convert
(define-fun |B16| () Bool |goto_symex::&92;guard#4|)


; location file AVL/harness.c line 25 function main  713
; convert
(define-fun |B17| () Bool |goto_symex::&92;guard#4|)


; location file AVL/harness.c line 26 function main  4094
; find_symbols
(declare-fun |goto_symex::&92;guard#5| () Bool)

; location file AVL/harness.c line 26 function main  713
; convert
(define-fun |B18| () Bool (and |goto_symex::&92;guard#4| |goto_symex::&92;guard#5|))


; location   713
; convert
(define-fun |B19| () Bool |goto_symex::&92;guard#4|)


; location file AVL/harness.c line 29 function main  713
; convert
(define-fun |B20| () Bool (not |goto_symex::&92;guard#4|))


; location file AVL/harness.c line 30 function main  713
; convert
(define-fun |B21| () Bool (not |goto_symex::&92;guard#4|))


; location file AVL/harness.c line 30 function main  713
; convert
(define-fun |B22| () Bool (not |goto_symex::&92;guard#4|))


; location file AVL/harness.c line 30 function main  713
; convert
(define-fun |B23| () Bool (not |goto_symex::&92;guard#4|))


; location file AVL/harness.c line 31 function main  713
; convert
(define-fun |B24| () Bool (not |goto_symex::&92;guard#4|))


; location file AVL/harness.c line 32 function main  4094
; find_symbols
(declare-fun |goto_symex::&92;guard#6| () Bool)

; location file AVL/harness.c line 32 function main  713
; convert
(define-fun |B25| () Bool (and (not |goto_symex::&92;guard#4|) |goto_symex::&92;guard#6|))


; location file AVL/harness.c line 38 function main  4094
; find_symbols
(declare-fun |goto_symex::&92;guard#7| () Bool)

; location file AVL/harness.c line 38 function main  713
; convert
(define-fun |B26| () Bool |goto_symex::&92;guard#7|)


; location file AVL/harness.c line 38 function main  713
; convert
(define-fun |B27| () Bool |goto_symex::&92;guard#7|)


; location file AVL/harness.c line 38 function main  713
; convert
(define-fun |B28| () Bool |goto_symex::&92;guard#7|)


; location file AVL/harness.c line 38 function main  713
; convert
(define-fun |B29| () Bool |goto_symex::&92;guard#7|)


; location file AVL/harness.c line 38 function main  713
; convert
(define-fun |B30| () Bool |goto_symex::&92;guard#7|)


; location file AVL/harness.c line 38 function main  713
; convert
(define-fun |B31| () Bool |goto_symex::&92;guard#7|)


; location file AVL/harness.c line 39 function main  713
; convert
(define-fun |B32| () Bool |goto_symex::&92;guard#7|)


; location file AVL/harness.c line 40 function main  713
; convert
(define-fun |B33| () Bool (not |goto_symex::&92;guard#7|))


; location file AVL/harness.c line 40 function main  713
; convert
(define-fun |B34| () Bool (not |goto_symex::&92;guard#7|))


; location file AVL/harness.c line 40 function main  713
; convert
(define-fun |B35| () Bool (not |goto_symex::&92;guard#7|))


; location file AVL/harness.c line 40 function main  713
; convert
(define-fun |B36| () Bool (not |goto_symex::&92;guard#7|))


; location file AVL/harness.c line 40 function main  713
; convert
(define-fun |B37| () Bool (not |goto_symex::&92;guard#7|))


; location file AVL/harness.c line 40 function main  713
; convert
(define-fun |B38| () Bool (not |goto_symex::&92;guard#7|))


; location file <built-in-additions> line 40  4025
; set_to true (equal)
(define-fun |__CPROVER_dead_object#1| () (_ BitVec 64) (_ bv0 64))


; location file <built-in-additions> line 39  4025
; set_to true (equal)
(define-fun |__CPROVER_deallocated#1| () (_ BitVec 64) (_ bv0 64))


; location file <built-in-additions> line 43  4025
; set_to true (equal)
(define-fun |__CPROVER_malloc_is_new_array#1| () Bool false)


; location file <built-in-additions> line 41  4025
; set_to true (equal)
(define-fun |__CPROVER_malloc_object#1| () (_ BitVec 64) (_ bv0 64))


; location file <built-in-additions> line 42  4025
; set_to true (equal)
(define-fun |__CPROVER_malloc_size#1| () (_ BitVec 64) (_ bv0 64))


; location file <built-in-additions> line 44  4025
; set_to true (equal)
(define-fun |__CPROVER_memory_leak#1| () (_ BitVec 64) (_ bv0 64))


; location file <built-in-additions> line 31  4025
; set_to true (equal)
(define-fun |__CPROVER_next_thread_id#1| () (_ BitVec 64) (_ bv0 64))


; location file <built-in-additions> line 99  4025
; set_to true (equal)
(define-fun |__CPROVER_pipe_count#1| () (_ BitVec 32) (_ bv0 32))


; location file <built-in-additions> line 66  4025
; set_to true (equal)
(define-fun |__CPROVER_rounding_mode!0#1| () (_ BitVec 32) (_ bv0 32))


; location file <built-in-additions> line 29  4025
; set_to true (equal)
(define-fun |__CPROVER_thread_id!0#1| () (_ BitVec 64) (_ bv0 64))


; location file <built-in-additions> line 30  4108
; the following is a substitute for lambda i. x
(declare-fun array_of.0 () (Array (_ BitVec 64) Bool))

; location file <built-in-additions> line 30  4025
; set_to true (equal)
(define-fun |__CPROVER_threads_exited#1| () (Array (_ BitVec 64) Bool) array_of.0)


; location file AVL/harness.c line 11 function main  4025
; set_to true (equal)
(define-fun |main::1::present!0@1#2| () (_ BitVec 32) (_ bv0 32))


; location file AVL/harness.c line 13 function main  4094
; find_symbols
(declare-fun |nondet_symex::nondet0| () (_ BitVec 32))

; location file AVL/harness.c line 13 function main  4025
; set_to true (equal)
(define-fun |main::1::val!0@1#2| () (_ BitVec 32) |nondet_symex::nondet0|)

(declare-datatypes () ((struct.0 (mk-struct.0 (struct.0.payload (_ BitVec 32)) (struct.0.height (_ BitVec 32)) (struct.0.kid (Array (_ BitVec 64) (_ BitVec 64))) ))))
(define-fun update-struct.0.payload ((s struct.0) (v (_ BitVec 32))) struct.0 (mk-struct.0 v (struct.0.height s) (struct.0.kid s) ))
(define-fun update-struct.0.height ((s struct.0) (v (_ BitVec 32))) struct.0 (mk-struct.0 (struct.0.payload s) v (struct.0.kid s) ))
(define-fun update-struct.0.kid ((s struct.0) (v (Array (_ BitVec 64) (_ BitVec 64)))) struct.0 (mk-struct.0 (struct.0.payload s) (struct.0.height s) v ))


; location file AVL/harness.c line 17 function main  4094
; find_symbols
(declare-fun |nnil#0| () (_ BitVec 64))

; location file AVL/harness.c line 17 function main  4025
; set_to true (equal)
(define-fun |main::1::root!0@1#2| () (_ BitVec 64) |nnil#0|)


; location file AVL/harness.c line 19 function main  4025
; set_to true (equal)
(define-fun |main::1::i!0@1#2| () (_ BitVec 32) (_ bv0 32))


; location file AVL/harness.c line 20 function main  4094
; find_symbols
(declare-fun |nondet_symex::nondet1| () (_ BitVec 32))

; location file AVL/harness.c line 20 function main  4025
; set_to true (equal)
(define-fun |main::1::v!0@1#2| () (_ BitVec 32) |nondet_symex::nondet1|)


; location file AVL/harness.c line 21 function main  4094
; find_symbols
(declare-fun |nondet_symex::nondet2| () (_ BitVec 32))

; location file AVL/harness.c line 21 function main  4025
; set_to true (equal)
(define-fun |main::1::c!0@1#2| () (_ BitVec 32) |nondet_symex::nondet2|)


; location file AVL/harness.c line 22 function main  4045
; set_to true
(assert (= |goto_symex::&92;guard#1| (bvsge |main::1::c!0@1#2| (_ bv1 32))))


; location file AVL/harness.c line 25 function main  4045
; set_to true
(assert (= |goto_symex::&92;guard#2| (= |main::1::v!0@1#2| |main::1::val!0@1#2|)))


; location file AVL/harness.c line 26 function main  4025
; set_to true (equal)
(define-fun |main::1::present!0@1#3| () (_ BitVec 32) (_ bv1 32))


; location   4025
; set_to true (equal)
(define-fun |main::1::present!0@1#4| () (_ BitVec 32) (ite |goto_symex::&92;guard#2| (_ bv1 32) (_ bv0 32)))


; location file AVL/harness.c line 29 function main  4025
; set_to true (equal)
(define-fun |main::1::present!0@1#5| () (_ BitVec 32) (_ bv0 32))


; location file AVL/harness.c line 31 function main  4045
; set_to true
(assert (= |goto_symex::&92;guard#3| (= |main::1::v!0@1#2| |main::1::val!0@1#2|)))


; location file AVL/harness.c line 32 function main  4025
; set_to true (equal)
(define-fun |main::1::present!0@1#6| () (_ BitVec 32) (_ bv0 32))


; location file AVL/harness.c line 19 function main  4025
; set_to true (equal)
(define-fun |main::1::present!0@1#7| () (_ BitVec 32) (_ bv0 32))


; location file AVL/harness.c line 19 function main  4025
; set_to true (equal)
(define-fun |main::1::present!0@1#8| () (_ BitVec 32) (ite |goto_symex::&92;guard#1| |main::1::present!0@1#4| (_ bv0 32)))


; location file AVL/harness.c line 19 function main  4025
; set_to true (equal)
(define-fun |main::1::i!0@1#3| () (_ BitVec 32) (_ bv1 32))


; location file AVL/harness.c line 20 function main  4094
; find_symbols
(declare-fun |nondet_symex::nondet3| () (_ BitVec 32))

; location file AVL/harness.c line 20 function main  4025
; set_to true (equal)
(define-fun |main::1::v!0@1#3| () (_ BitVec 32) |nondet_symex::nondet3|)


; location file AVL/harness.c line 21 function main  4094
; find_symbols
(declare-fun |nondet_symex::nondet4| () (_ BitVec 32))

; location file AVL/harness.c line 21 function main  4025
; set_to true (equal)
(define-fun |main::1::c!0@1#3| () (_ BitVec 32) |nondet_symex::nondet4|)


; location file AVL/harness.c line 22 function main  4045
; set_to true
(assert (= |goto_symex::&92;guard#4| (bvsge |main::1::c!0@1#3| (_ bv1 32))))


; location file AVL/harness.c line 25 function main  4045
; set_to true
(assert (= |goto_symex::&92;guard#5| (= |main::1::v!0@1#3| |main::1::val!0@1#2|)))


; location file AVL/harness.c line 26 function main  4025
; set_to true (equal)
(define-fun |main::1::present!0@1#9| () (_ BitVec 32) (_ bv1 32))


; location   4025
; set_to true (equal)
(define-fun |main::1::present!0@1#10| () (_ BitVec 32) (ite |goto_symex::&92;guard#5| (_ bv1 32) |main::1::present!0@1#8|))


; location file AVL/harness.c line 29 function main  4025
; set_to true (equal)
(define-fun |main::1::present!0@1#11| () (_ BitVec 32) |main::1::present!0@1#8|)


; location file AVL/harness.c line 31 function main  4045
; set_to true
(assert (= |goto_symex::&92;guard#6| (= |main::1::v!0@1#3| |main::1::val!0@1#2|)))


; location file AVL/harness.c line 32 function main  4025
; set_to true (equal)
(define-fun |main::1::present!0@1#12| () (_ BitVec 32) (_ bv0 32))


; location file AVL/harness.c line 19 function main  4025
; set_to true (equal)
(define-fun |main::1::present!0@1#13| () (_ BitVec 32) (ite |goto_symex::&92;guard#6| (_ bv0 32) |main::1::present!0@1#11|))


; location file AVL/harness.c line 19 function main  4025
; set_to true (equal)
(define-fun |main::1::present!0@1#14| () (_ BitVec 32) (ite |goto_symex::&92;guard#4| |main::1::present!0@1#10| |main::1::present!0@1#13|))


; location file AVL/harness.c line 19 function main  4025
; set_to true (equal)
(define-fun |main::1::i!0@1#4| () (_ BitVec 32) (_ bv2 32))


; location file AVL/harness.c line 37 function main  4045
; set_to true
(assert (= |goto_symex::&92;guard#7| (not (= |main::1::present!0@1#14| (_ bv0 32)))))


; location file AVL/harness.c line 38 function main  4094
; find_symbols
(declare-fun |nondet_symex::nondet5| () (_ BitVec 64))

; location file AVL/harness.c line 38 function main  4025
; set_to true (equal)
(define-fun |main::$tmp::return_value_query$1!0@1#2| () (_ BitVec 64) |nondet_symex::nondet5|)


; location file AVL/harness.c line 40 function main  4094
; find_symbols
(declare-fun |main::$tmp::return_value_query$1!0@1#0| () (_ BitVec 64))

; location file AVL/harness.c line 40 function main  4025
; set_to true (equal)
(define-fun |main::$tmp::return_value_query$1!0@1#4| () (_ BitVec 64) |main::$tmp::return_value_query$1!0@1#0|)


; location file AVL/harness.c line 40 function main  4094
; find_symbols
(declare-fun |nondet_symex::nondet6| () (_ BitVec 64))

; location file AVL/harness.c line 40 function main  4025
; set_to true (equal)
(define-fun |main::$tmp::return_value_query$2!0@1#2| () (_ BitVec 64) |nondet_symex::nondet6|)


; location file AVL/harness.c line 10 function main  4094
; find_symbols
(declare-fun |main::1::v!0@1#1| () (_ BitVec 32))

; location file AVL/harness.c line 10 function main  713
; convert
(define-fun |B39| () Bool (= |main::1::v!0@1#1| |main::1::v!0@1#1|))


; location file AVL/harness.c line 10 function main  4094
; find_symbols
(declare-fun |main::1::i!0@1#1| () (_ BitVec 32))

; location file AVL/harness.c line 10 function main  713
; convert
(define-fun |B40| () Bool (= |main::1::i!0@1#1| |main::1::i!0@1#1|))


; location file AVL/harness.c line 10 function main  4094
; find_symbols
(declare-fun |main::1::c!0@1#1| () (_ BitVec 32))

; location file AVL/harness.c line 10 function main  713
; convert
(define-fun |B41| () Bool (= |main::1::c!0@1#1| |main::1::c!0@1#1|))


; location file AVL/harness.c line 11 function main  4094
; find_symbols
(declare-fun |main::1::present!0@1#1| () (_ BitVec 32))

; location file AVL/harness.c line 11 function main  713
; convert
(define-fun |B42| () Bool (= |main::1::present!0@1#1| |main::1::present!0@1#1|))


; location file AVL/harness.c line 13 function main  4094
; find_symbols
(declare-fun |main::1::val!0@1#1| () (_ BitVec 32))

; location file AVL/harness.c line 13 function main  713
; convert
(define-fun |B43| () Bool (= |main::1::val!0@1#1| |main::1::val!0@1#1|))


; location file AVL/harness.c line 17 function main  4094
; find_symbols
(declare-fun |main::1::root!0@1#1| () (_ BitVec 64))

; location file AVL/harness.c line 17 function main  713
; convert
(define-fun |B44| () Bool (= |main::1::root!0@1#1| |main::1::root!0@1#1|))


; location file AVL/harness.c line 38 function main  4094
; find_symbols
(declare-fun |main::$tmp::return_value_query$1!0@1#1| () (_ BitVec 64))

; location file AVL/harness.c line 38 function main  713
; convert
(define-fun |B45| () Bool (= |main::$tmp::return_value_query$1!0@1#1| |main::$tmp::return_value_query$1!0@1#1|))


; location file AVL/harness.c line 40 function main  4094
; find_symbols
(declare-fun |main::$tmp::return_value_query$2!0@1#1| () (_ BitVec 64))

; location file AVL/harness.c line 40 function main  713
; convert
(define-fun |B46| () Bool (= |main::$tmp::return_value_query$2!0@1#1| |main::$tmp::return_value_query$2!0@1#1|))


; location file AVL/harness.c line 38 function main  713
; convert
(define-fun |B47| () Bool (=> (and true false) (=> |goto_symex::&92;guard#7| (not (= |main::$tmp::return_value_query$1!0@1#2| (_ bv0 64))))))


; location file AVL/harness.c line 40 function main  713
; convert
(define-fun |B48| () Bool (=> (and true false) (=> (not |goto_symex::&92;guard#7|) (= |main::$tmp::return_value_query$2!0@1#2| (_ bv0 64)))))


; location   4045
; set_to true
(assert (or (not |B47|) (not |B48|)))


; location file AVL/harness.c line 22 function main  713
; convert
(define-fun |B49| () Bool (not (bvsge |main::1::c!0@1#2| (_ bv1 32))))


; location file AVL/harness.c line 25 function main  713
; convert
(define-fun |B50| () Bool (not (= |main::1::v!0@1#2| |main::1::val!0@1#2|)))


; location file AVL/harness.c line 31 function main  713
; convert
(define-fun |B51| () Bool (not (= |main::1::v!0@1#2| |main::1::val!0@1#2|)))


; location file AVL/harness.c line 22 function main  713
; convert
(define-fun |B52| () Bool (not (bvsge |main::1::c!0@1#3| (_ bv1 32))))


; location file AVL/harness.c line 25 function main  713
; convert
(define-fun |B53| () Bool (not (= |main::1::v!0@1#3| |main::1::val!0@1#2|)))


; location file AVL/harness.c line 31 function main  713
; convert
(define-fun |B54| () Bool (not (= |main::1::v!0@1#3| |main::1::val!0@1#2|)))


; location file AVL/harness.c line 37 function main  713
; convert
(define-fun |B55| () Bool (= |main::1::present!0@1#14| (_ bv0 32)))


; location file AVL/harness.c line 15 function main  4094
; find_symbols
(declare-fun |symex::io::0| () (_ BitVec 32))

; location file AVL/harness.c line 15 function main  4045
; set_to true
(assert (= |main::1::val!0@1#2| |symex::io::0|))


; location file AVL/harness.c line 23 function main  4094
; find_symbols
(declare-fun |symex::io::1| () (_ BitVec 32))

; location file AVL/harness.c line 23 function main  4045
; set_to true
(assert (= |main::1::v!0@1#2| |symex::io::1|))


; location file AVL/harness.c line 29 function main  4094
; find_symbols
(declare-fun |symex::io::2| () (_ BitVec 32))

; location file AVL/harness.c line 29 function main  4045
; set_to true
(assert (= |main::1::v!0@1#2| |symex::io::2|))


; location file AVL/harness.c line 23 function main  4094
; find_symbols
(declare-fun |symex::io::3| () (_ BitVec 32))

; location file AVL/harness.c line 23 function main  4045
; set_to true
(assert (= |main::1::v!0@1#3| |symex::io::3|))


; location file AVL/harness.c line 29 function main  4094
; find_symbols
(declare-fun |symex::io::4| () (_ BitVec 32))

; location file AVL/harness.c line 29 function main  4045
; set_to true
(assert (= |main::1::v!0@1#3| |symex::io::4|))


; location   4045
; set_to true
(assert (or (not |B47|) (not |B48|)))

(check-sat)

(get-value (|B0|))
(get-value (|B1|))
(get-value (|B10|))
(get-value (|B11|))
(get-value (|B12|))
(get-value (|B13|))
(get-value (|B14|))
(get-value (|B15|))
(get-value (|B16|))
(get-value (|B17|))
(get-value (|B18|))
(get-value (|B19|))
(get-value (|B2|))
(get-value (|B20|))
(get-value (|B21|))
(get-value (|B22|))
(get-value (|B23|))
(get-value (|B24|))
(get-value (|B25|))
(get-value (|B26|))
(get-value (|B27|))
(get-value (|B28|))
(get-value (|B29|))
(get-value (|B3|))
(get-value (|B30|))
(get-value (|B31|))
(get-value (|B32|))
(get-value (|B33|))
(get-value (|B34|))
(get-value (|B35|))
(get-value (|B36|))
(get-value (|B37|))
(get-value (|B38|))
(get-value (|B39|))
(get-value (|B4|))
(get-value (|B40|))
(get-value (|B41|))
(get-value (|B42|))
(get-value (|B43|))
(get-value (|B44|))
(get-value (|B45|))
(get-value (|B46|))
(get-value (|B47|))
(get-value (|B48|))
(get-value (|B49|))
(get-value (|B5|))
(get-value (|B50|))
(get-value (|B51|))
(get-value (|B52|))
(get-value (|B53|))
(get-value (|B54|))
(get-value (|B55|))
(get-value (|B6|))
(get-value (|B7|))
(get-value (|B8|))
(get-value (|B9|))
(get-value (|__CPROVER_dead_object#1|))
(get-value (|__CPROVER_deallocated#1|))
(get-value (|__CPROVER_malloc_is_new_array#1|))
(get-value (|__CPROVER_malloc_object#1|))
(get-value (|__CPROVER_malloc_size#1|))
(get-value (|__CPROVER_memory_leak#1|))
(get-value (|__CPROVER_next_thread_id#1|))
(get-value (|__CPROVER_pipe_count#1|))
(get-value (|__CPROVER_rounding_mode!0#1|))
(get-value (|__CPROVER_thread_id!0#1|))
(get-value (|__CPROVER_threads_exited#1|))
(get-value (|goto_symex::&92;guard#1|))
(get-value (|goto_symex::&92;guard#2|))
(get-value (|goto_symex::&92;guard#3|))
(get-value (|goto_symex::&92;guard#4|))
(get-value (|goto_symex::&92;guard#5|))
(get-value (|goto_symex::&92;guard#6|))
(get-value (|goto_symex::&92;guard#7|))
(get-value (|main::$tmp::return_value_query$1!0@1#0|))
(get-value (|main::$tmp::return_value_query$1!0@1#1|))
(get-value (|main::$tmp::return_value_query$1!0@1#2|))
(get-value (|main::$tmp::return_value_query$1!0@1#4|))
(get-value (|main::$tmp::return_value_query$2!0@1#1|))
(get-value (|main::$tmp::return_value_query$2!0@1#2|))
(get-value (|main::1::c!0@1#1|))
(get-value (|main::1::c!0@1#2|))
(get-value (|main::1::c!0@1#3|))
(get-value (|main::1::i!0@1#1|))
(get-value (|main::1::i!0@1#2|))
(get-value (|main::1::i!0@1#3|))
(get-value (|main::1::i!0@1#4|))
(get-value (|main::1::present!0@1#1|))
(get-value (|main::1::present!0@1#10|))
(get-value (|main::1::present!0@1#11|))
(get-value (|main::1::present!0@1#12|))
(get-value (|main::1::present!0@1#13|))
(get-value (|main::1::present!0@1#14|))
(get-value (|main::1::present!0@1#2|))
(get-value (|main::1::present!0@1#3|))
(get-value (|main::1::present!0@1#4|))
(get-value (|main::1::present!0@1#5|))
(get-value (|main::1::present!0@1#6|))
(get-value (|main::1::present!0@1#7|))
(get-value (|main::1::present!0@1#8|))
(get-value (|main::1::present!0@1#9|))
(get-value (|main::1::root!0@1#1|))
(get-value (|main::1::root!0@1#2|))
(get-value (|main::1::v!0@1#1|))
(get-value (|main::1::v!0@1#2|))
(get-value (|main::1::v!0@1#3|))
(get-value (|main::1::val!0@1#1|))
(get-value (|main::1::val!0@1#2|))
(get-value (|nnil#0|))
(get-value (|nondet_symex::nondet0|))
(get-value (|nondet_symex::nondet1|))
(get-value (|nondet_symex::nondet2|))
(get-value (|nondet_symex::nondet3|))
(get-value (|nondet_symex::nondet4|))
(get-value (|nondet_symex::nondet5|))
(get-value (|nondet_symex::nondet6|))
(get-value (|symex::io::0|))
(get-value (|symex::io::1|))
(get-value (|symex::io::2|))
(get-value (|symex::io::3|))
(get-value (|symex::io::4|))

(exit)
; end of SMT2 file
